1020,652
607,634
293,124
1069,124
1155,481
417,770
871,596
1020,745
956,131
317,670
363,724
839,188
948,542
334,583
1125,476
171,406
829,-50
787,352
727,264
1117,89
921,406
1006,355
254,267
655,393
512,237
